WARNING: for repeatability, setting FPU to use double precision
============================[ Problem Statistics ]=============================
|                                                                             |
|  Number of variables:          1000                                         |
|  Number of clauses:           25000                                         |
|  Parse time:                   0.00 s                                       |
|                                                                             |
c ============================[ Search Statistics ]==============================
c | Conflicts |          ORIGINAL         |          LEARNT          | Progress |
c |           |    Vars  Clauses Literals |    Limit  Clauses Lit/Cl |          |
c ===============================================================================
c Switched to VSIDS.
c Switched to LRB.
c Switched to VSIDS.
c Switched to LRB.
c Switched to VSIDS.
c Switched to LRB.
c Switched to VSIDS.
c Switched to LRB.
c Switched to VSIDS.
c Switched to LRB.
c Switched to VSIDS.
c Switched to LRB.
c Switched to VSIDS.
c Switched to LRB.
c Switched to VSIDS.
c Switched to LRB.
c Switched to VSIDS.
c Switched to LRB.
c Switched to VSIDS.
c Switched to LRB.
c Switched to VSIDS.
c Switched to LRB.
c Switched to VSIDS.
c Switched to LRB.
c Switched to VSIDS.
c Switched to LRB.
c Switched to VSIDS.
c Switched to LRB.
c Switched to VSIDS.
c Switched to LRB.
c ===============================================================================
restarts                  : 25414
conflicts                 : 15000650       (4235 /sec)
decisions                 : 19454562       (0.00 % random) (5493 /sec)
propagations              : 5246883269     (1481435 /sec)
conflict literals         : 833751069      (40.97 % deleted)

conflicts w/ DIP found    : 9195707        (61.30 % of conflicts)
conflicts w/ dangerous DIP: 0              (0.00 % of conflicts)
conflicts w/ DIP-learning : 89864          (0.60 % of conflicts)
decisions on ext vars     : 2878           (0.01 % of decisions)
total ext vars            : 11031       
tried delete ext vars     : 4006        
deleted ext vars          : 4006        
max ext vars              : 7025        

Memory used               : 181.00 MB
CPU time                  : 3541.76 s
DIP computation time      : 93.3792 s (2.64 % of total time)
ER_sel time               : 16.3765 s
ER_add time               : 0.036058 s
ER_delC time              : 0 s
ER_delV time              : 0.251635 s
ER_sub time               : 19.0458 s
ER_stat time              : 0 s

INDETERMINATE
